\* Power-Cost consumption problem *\
Minimize
Total_Cost_of_Energy: 131.6 time_0 + 125.6 time_1 + 586.5 time_10
 + 612 time_11 + 426 time_12 + 428 time_13 + 430 time_14 + 448 time_15
 + 450 time_16 + 291 time_17 + 291 time_18 + 389 time_19 + 120 time_2
 + 391.5 time_20 + 375 time_21 + 360 time_22 + 131.6 time_23 + 120.8 time_3
 + 121.2 time_4 + 121.6 time_5 + 134.8 time_6 + 354 time_7 + 534 time_8
 + 559.5 time_9
Subject To
Max_Power: 329 time_0 + 314 time_1 + 391 time_10 + 408 time_11 + 426 time_12
 + 428 time_13 + 430 time_14 + 448 time_15 + 450 time_16 + 291 time_17
 + 291 time_18 + 389 time_19 + 300 time_2 + 261 time_20 + 250 time_21
 + 240 time_22 + 329 time_23 + 302 time_3 + 303 time_4 + 304 time_5
 + 337 time_6 + 354 time_7 + 356 time_8 + 373 time_9 <= 5984
Min_Power: 329 time_0 + 314 time_1 + 391 time_10 + 408 time_11 + 426 time_12
 + 428 time_13 + 430 time_14 + 448 time_15 + 450 time_16 + 291 time_17
 + 291 time_18 + 389 time_19 + 300 time_2 + 261 time_20 + 250 time_21
 + 240 time_22 + 329 time_23 + 302 time_3 + 303 time_4 + 304 time_5
 + 337 time_6 + 354 time_7 + 356 time_8 + 373 time_9 >= 5023
Binaries
time_0
time_1
time_10
time_11
time_12
time_13
time_14
time_15
time_16
time_17
time_18
time_19
time_2
time_20
time_21
time_22
time_23
time_3
time_4
time_5
time_6
time_7
time_8
time_9
End
